
Gurobi 10.0.1 (linux64) logging started Sun Nov 26 16:13:13 2023

Set parameter LogFile to value "ArtificialInstance/ExperimentV2/S4T3K2/BaDo/gurobi91.txt"
Gurobi Optimizer version 10.0.1 build v10.0.1rc0 (linux64)

CPU model: AMD EPYC 7H12 64-Core Processor, instruction set [SSE2|AVX|AVX2]
Thread count: 128 physical cores, 128 logical processors, using up to 32 threads

Academic license 656792 - for non-commercial use only - registered to b.___@student.vu.nl
Optimize a model with 420 rows, 720 columns and 2240 nonzeros
Model fingerprint: 0x12b1f1fe
Variable types: 0 continuous, 720 integer (720 binary)
Coefficient statistics:
  Matrix range     [1e+00, 1e+00]
  Objective range  [2e+00, 2e+01]
  Bounds range     [1e+00, 1e+00]
  RHS range        [1e+00, 1e+00]
Found heuristic solution: objective 258.2829870
Presolve time: 0.00s
Presolved: 420 rows, 720 columns, 2240 nonzeros
Variable types: 0 continuous, 720 integer (720 binary)

Root relaxation: objective 2.589891e+01, 285 iterations, 0.00 seconds (0.00 work units)

    Nodes    |    Current Node    |     Objective Bounds      |     Work
 Expl Unexpl |  Obj  Depth IntInf | Incumbent    BestBd   Gap | It/Node Time

     0     0   25.89891    0   30  258.28299   25.89891  90.0%     -    0s
H    0     0                      54.1102479   25.89891  52.1%     -    0s
H    0     0                      51.2679039   25.89891  49.5%     -    0s
H    0     0                      33.3260321   28.01006  16.0%     -    0s
     0     0   28.01006    0   23   33.32603   28.01006  16.0%     -    0s
H    0     0                      29.3097947   28.01006  4.43%     -    0s

Cutting planes:
  Gomory: 3
  Zero half: 6
  RLT: 3

Explored 1 nodes (501 simplex iterations) in 0.03 seconds (0.01 work units)
Thread count was 32 (of 128 available processors)

Solution count 5: 29.3098 33.326 51.2679 ... 258.283

Optimal solution found (tolerance 1.00e-04)
Best objective 2.930979468723e+01, best bound 2.930979468723e+01, gap 0.0000%
